% demand
num_movements = 34;
loading_factor = [1700, 1100, 1400, 1550, 1800, 1700, 1200, 850, 1750, 2000, 950, 1100, 900, 1050, 1650, 1350, 1800, 1350, 2000, 850, 1850, 1950, 1550, 1050, 900, 1250, 850, 1600, 800, 1050, 1850, 1650, 1550, 2000];
pickup_time = [0, 0, 0, 0, 0, 0, 0, 2, 2, 3, 3, 3, 3, 3, 5, 5, 5, 5, 5, 5, 7, 7, 8, 8, 8, 8, 8, 8, 8, 8, 8, 11, 11, 11];
delivery_time = [3, 1, 3, 4, 2, 4, 2, 3, 5, 5, 8, 5, 4, 8, 8, 7, 7, 8, 6, 6, 8, 8, 10, 11, 13, 13, 11, 10, 11, 13, 13, 13, 13, 13];

% transporter definition
total_capacity = 11000;
num_decks = 4;
capacity = [3000, 3000, 1000, 4000];

% ways out of decks
num_ways_out = 2;
paths_out = array3d(decks, ways_out, decks, [
% ways out of deck d1
2, 4, 0, 0, 3, 4, 0, 0, 

% ways out of deck d2
4, 0, 0, 0, 0, 0, 0, 0,	

% ways out of deck d3
4, 0, 0, 0, 0, 0, 0, 0,	

% ways out of deck d4
0, 0, 0, 0,	0, 0, 0, 0,	

]);

